NAME : zqloutput/eax-hard-simple-rescaleandround/50-84.tsp
TYPE : TSP
DIMENSION : 50
EDGE_WEIGHT_TYPE : EUC_2D
NODE_COORD_SECTION
1 371680 252180
2 498477 897118
3 717306 626961
4 190646 643241
5 358301 738591
6 750694 314251
7 543555 632563
8 792738 863508
9 713572 704015
10 277849 606325
11 688707 555128
12 922719 261660
13 413450 318906
14 435932 264149
15 257289 272817
16 844566 593999
17 447126 460403
18 819597 679649
19 314894 960540
20 671434 261393
21 829192 375261
22 865889 796704
23 449683 688666
24 139135 262383
25 305565 48615
26 114227 184628
27 989781 472400
28 360669 955334
29 319607 367562
30 392740 477894
31 602116 45545
32 41503 992092
33 779614 719629
34 626843 642410
35 690669 450138
36 821211 478112
37 344880 774606
38 855970 43436
39 280408 935406
40 471158 547231
41 632819 168339
42 318281 698105
43 330631 679262
44 488538 314500
45 292592 457038
46 66600 225799
47 592761 819823
48 664011 443860
49 466835 650563
50 875664 423138
EOF
